\ Model Ore Mixing Problem
\ LP format - for model browsing. Use MPS format to capture full model detail.
Minimize
  765.6967840735067 a_max_00 + 370.3703703703703 a_max_01
   + 745.1564828614008 a_max_02 + 1057.08245243129 a_max_03
   + 877192.9824561402 a_max_10 + 813008.1300813009 a_max_11
   + 2.3809523809523811e+06 a_max_12 + 1e+12 a_max_13
   + 357142.8571428571 a_max_20 + 1e+11 a_max_21
   + 454545.4545454546 a_max_22 + 303030.303030303 a_max_23
   + 250000 a_max_30 + 476190.4761904762 a_max_31
   + 227272.7272727273 a_max_32 + 285714.2857142857 a_max_33
   + 588235.294117647 a_max_40 + 666666.6666666665 a_max_41
   + 588235.294117647 a_max_42 + 101010.101010101 a_max_43
   + 2.000000000000007e+06 a_max_50 + 142857.1428571428 a_max_51
   + 714285.7142857159 a_max_52 + 102040.8163265306 a_max_53
   + 313.0870381966187 a_min_00 + 555.5555555555555 a_min_01
   + 316.6561114629512 a_min_02 + 281.37310073157 a_min_03
   + 2.777777777777778e+06 a_min_10 + 3.7037037037037034e+06 a_min_11
   + 925925.9259259258 a_min_12 + 666666.6666666666 a_min_13
   + 454545.4545454546 a_min_20 + 200000 a_min_21
   + 357142.8571428571 a_min_22 + 588235.2941176471 a_min_23
   + 1e+06 a_min_30 + 344827.5862068966 a_min_31
   + 1.6666666666666667e+06 a_min_32 + 666666.6666666667 a_min_33
   + 120481.9277108434 a_min_40 + 117647.0588235294 a_min_41
   + 120481.9277108434 a_min_42 + 1e+07 a_min_43
   + 68965.5172413793 a_min_50 + 125000 a_min_51
   + 73529.41176470587 a_min_52 + 192307.6923076925 a_min_53
   + 0.0765696784073507 b_min_00 + 0.0555555555555556 b_min_01
   + 0.0745156482861401 b_min_02 + 0.105708245243129 b_min_03
   + 2.777777777777778 b_min_10 + 3.703703703703703 b_min_11
   + 2.380952380952381 b_min_12 + 1e+06 b_min_13
   + 4.545454545454546 b_min_20 + 1e+06 b_min_21
   + 4.545454545454546 b_min_22 + 5.88235294117647 b_min_23 + 10 b_min_30
   + 4.761904761904762 b_min_31 + 16.66666666666667 b_min_32
   + 6.666666666666667 b_min_33 + 5.882352941176469 b_min_40
   + 6.666666666666666 b_min_41 + 5.882352941176469 b_min_42 + 100 b_min_43
   + 20 b_min_50 + 1.428571428571428 b_min_51 + 7.142857142857159 b_min_52
   + 1.923076923076925 b_min_53 + 0.0765696784073507 b_max_00
   + 0.0555555555555556 b_max_01 + 0.0745156482861401 b_max_02
   + 0.105708245243129 b_max_03 + 2.777777777777778 b_max_10
   + 3.703703703703703 b_max_11 + 2.380952380952381 b_max_12
   + 1e+06 b_max_13 + 4.545454545454546 b_max_20 + 1e+06 b_max_21
   + 4.545454545454546 b_max_22 + 5.88235294117647 b_max_23 + 10 b_max_30
   + 4.761904761904762 b_max_31 + 16.66666666666667 b_max_32
   + 6.666666666666667 b_max_33 + 5.882352941176469 b_max_40
   + 6.666666666666666 b_max_41 + 5.882352941176469 b_max_42 + 100 b_max_43
   + 20 b_max_50 + 1.428571428571428 b_max_51 + 7.142857142857159 b_max_52
   + 1.923076923076925 b_max_53
Subject To
 input_weight_constr_0: y_00 + y_01 + y_02 + y_03 + y_04 + y_05 <= 81.9
 input_weight_constr_1: y_10 + y_11 + y_12 + y_13 + y_14 + y_15 <= 81.9
 capacity_constr_0: y_00 + y_10 <= 37.9
 weight_constr_00: x_00 + x_01 + x_02 + x_03 - y_00 <= 1243.5
 weight_constr_01: x_00 + x_01 + x_02 + x_03 - y_10 <= 1243.5
 capacity_constr_1: y_01 + y_11 <= 131.1
 weight_constr_10: x_10 + x_11 + x_12 + x_13 - y_01 <= 1054.7
 weight_constr_11: x_10 + x_11 + x_12 + x_13 - y_11 <= 1054.7
 capacity_constr_2: y_02 + y_12 <= 167.8
 weight_constr_20: x_20 + x_21 + x_22 + x_23 - y_02 <= 1083.1
 weight_constr_21: x_20 + x_21 + x_22 + x_23 - y_12 <= 1083.1
 capacity_constr_3: y_03 + y_13 <= 166.5
 weight_constr_30: x_30 + x_31 + x_32 + x_33 - y_03 <= 959.6
 weight_constr_31: x_30 + x_31 + x_32 + x_33 - y_13 <= 959.6
 capacity_constr_4: y_04 + y_14 <= 309.2
 weight_constr_40: x_40 + x_41 + x_42 + x_43 - y_04 <= 1328.9
 weight_constr_41: x_40 + x_41 + x_42 + x_43 - y_14 <= 1328.9
 capacity_constr_5: y_05 + y_15 <= 136.3
 weight_constr_50: x_50 + x_51 + x_52 + x_53 - y_05 <= 1417.7
 weight_constr_51: x_50 + x_51 + x_52 + x_53 - y_15 <= 1417.7
 demand_constr_0: x_00 + x_10 + x_20 + x_30 + x_40 + x_50 = 1116.7
 min_quality_constr_00: 0.86 x_00 + 11.29 x_10 + 1.73 x_20 + 21.89 x_30
   + 22.96 x_40 + 1.54 x_50 + 1116.7 a_min_00 >= -0
 max_quality_constr_00: - 44.14 x_00 - 33.71 x_10 - 43.27 x_20 - 23.11 x_30
   - 22.04 x_40 - 43.46 x_50 - 1116.7 a_max_00 <= -0
 goal_quality_constr_00: - 31.08 x_00 - 20.65 x_10 - 30.21 x_20
   - 10.05 x_30 - 8.98 x_40 - 30.4 x_50 + 1116.7 b_min_00 - 1116.7 b_max_00
   = -0
 min_quality_constr_10: 0.45 x_00 + 1.31 x_10 + 0.78 x_20 + 1.15 x_30
   + 0.18 x_40 + 1.47 x_50 + 1116.7 a_min_10 >= -0
 max_quality_constr_10: - 1.05 x_00 - 0.19 x_10 - 0.72 x_20 - 0.35 x_30
   - 1.32 x_40 - 0.03 x_50 - 1116.7 a_max_10 <= -0
 goal_quality_constr_10: 0.09 x_00 + 0.95 x_10 + 0.42 x_20 + 0.79 x_30
   - 0.18 x_40 + 1.11 x_50 + 1116.7 b_min_10 - 1116.7 b_max_10 = -0
 min_quality_constr_20: 5.57 x_00 + 4.32 x_10 + 5.5 x_20 + 1.61 x_30
   + 2.85 x_40 + 1.75 x_50 + 1116.7 a_min_20 >= -0
 max_quality_constr_20: 5.07 x_00 + 3.82 x_10 + 5 x_20 + 1.11 x_30
   + 2.35 x_40 + 1.25 x_50 - 1116.7 a_max_20 <= -0
 goal_quality_constr_20: 5.35 x_00 + 4.1 x_10 + 5.28 x_20 + 1.39 x_30
   + 2.63 x_40 + 1.53 x_50 + 1116.7 b_min_20 - 1116.7 b_max_20 = -0
 min_quality_constr_30: 5.94 x_00 + 5.65 x_10 + 5.37 x_20 + 1.64 x_30
   + 5.95 x_40 + 5.07 x_50 + 1116.7 a_min_30 >= -0
 max_quality_constr_30: 5.44 x_00 + 5.15 x_10 + 4.87 x_20 + 1.14 x_30
   + 5.45 x_40 + 4.57 x_50 - 1116.7 a_max_30 <= -0
 goal_quality_constr_30: 5.84 x_00 + 5.55 x_10 + 5.27 x_20 + 1.54 x_30
   + 5.85 x_40 + 4.97 x_50 + 1116.7 b_min_30 - 1116.7 b_max_30 = -0
 min_quality_constr_40: 0.23 x_00 + 0.2 x_10 + 1.15 x_20 + 1.18 x_30
   + 0.09 x_40 + 0.53 x_50 + 1116.7 a_min_40 >= -0
 max_quality_constr_40: - 0.77 x_00 - 0.8 x_10 + 0.15 x_20 + 0.18 x_30
   - 0.91 x_40 - 0.47 x_50 - 1116.7 a_max_40 <= -0
 goal_quality_constr_40: - 0.6 x_00 - 0.63 x_10 + 0.32 x_20 + 0.35 x_30
   - 0.74 x_40 - 0.3 x_50 + 1116.7 b_min_40 - 1116.7 b_max_40 = -0
 min_quality_constr_50: 1.82 x_00 + 2.03 x_10 + 0.49 x_20 + 1.72 x_30
   + 0.59 x_40 + 2.46 x_50 + 1116.7 a_min_50 >= -0
 max_quality_constr_50: 0.32 x_00 + 0.53 x_10 - 1.01 x_20 + 0.22 x_30
   - 0.91 x_40 + 0.96 x_50 - 1116.7 a_max_50 <= -0
 goal_quality_constr_50: 0.37 x_00 + 0.58 x_10 - 0.96 x_20 + 0.27 x_30
   - 0.86 x_40 + 1.01 x_50 + 1116.7 b_min_50 - 1116.7 b_max_50 = -0
 demand_constr_1: x_01 + x_11 + x_21 + x_31 + x_41 + x_51 = 1070.5
 min_quality_constr_01: 0.86 x_01 + 11.29 x_11 + 1.73 x_21 + 21.89 x_31
   + 22.96 x_41 + 1.54 x_51 + 1070.5 a_min_01 >= -0
 max_quality_constr_01: - 44.14 x_01 - 33.71 x_11 - 43.27 x_21 - 23.11 x_31
   - 22.04 x_41 - 43.46 x_51 - 1070.5 a_max_01 <= -0
 goal_quality_constr_01: - 17.14 x_01 - 6.71 x_11 - 16.27 x_21 + 3.89 x_31
   + 4.96 x_41 - 16.46 x_51 + 1070.5 b_min_01 - 1070.5 b_max_01 = -0
 min_quality_constr_11: 0.45 x_01 + 1.31 x_11 + 0.78 x_21 + 1.15 x_31
   + 0.18 x_41 + 1.47 x_51 + 1070.5 a_min_11 >= -0
 max_quality_constr_11: - 1.05 x_01 - 0.19 x_11 - 0.72 x_21 - 0.35 x_31
   - 1.32 x_41 - 0.03 x_51 - 1070.5 a_max_11 <= -0
 goal_quality_constr_11: 0.18 x_01 + 1.04 x_11 + 0.51 x_21 + 0.88 x_31
   - 0.09 x_41 + 1.2 x_51 + 1070.5 b_min_11 - 1070.5 b_max_11 = -0
 min_quality_constr_21: 5.57 x_01 + 4.32 x_11 + 5.5 x_21 + 1.61 x_31
   + 2.85 x_41 + 1.75 x_51 + 1070.5 a_min_21 >= -0
 max_quality_constr_21: 5.07 x_01 + 3.82 x_11 + 5 x_21 + 1.11 x_31
   + 2.35 x_41 + 1.25 x_51 - 1070.5 a_max_21 <= -0
 goal_quality_constr_21: 5.07 x_01 + 3.82 x_11 + 5 x_21 + 1.11 x_31
   + 2.35 x_41 + 1.25 x_51 + 1070.5 b_min_21 - 1070.5 b_max_21 = -0
 min_quality_constr_31: 5.94 x_01 + 5.65 x_11 + 5.37 x_21 + 1.64 x_31
   + 5.95 x_41 + 5.07 x_51 + 1070.5 a_min_31 >= -0
 max_quality_constr_31: 5.44 x_01 + 5.15 x_11 + 4.87 x_21 + 1.14 x_31
   + 5.45 x_41 + 4.57 x_51 - 1070.5 a_max_31 <= -0
 goal_quality_constr_31: 5.65 x_01 + 5.36 x_11 + 5.08 x_21 + 1.35 x_31
   + 5.66 x_41 + 4.78 x_51 + 1070.5 b_min_31 - 1070.5 b_max_31 = -0
 min_quality_constr_41: 0.23 x_01 + 0.2 x_11 + 1.15 x_21 + 1.18 x_31
   + 0.09 x_41 + 0.53 x_51 + 1070.5 a_min_41 >= -0
 max_quality_constr_41: - 0.77 x_01 - 0.8 x_11 + 0.15 x_21 + 0.18 x_31
   - 0.91 x_41 - 0.47 x_51 - 1070.5 a_max_41 <= -0
 goal_quality_constr_41: - 0.62 x_01 - 0.65 x_11 + 0.3 x_21 + 0.33 x_31
   - 0.76 x_41 - 0.32 x_51 + 1070.5 b_min_41 - 1070.5 b_max_41 = -0
 min_quality_constr_51: 1.82 x_01 + 2.03 x_11 + 0.49 x_21 + 1.72 x_31
   + 0.59 x_41 + 2.46 x_51 + 1070.5 a_min_51 >= -0
 max_quality_constr_51: 0.32 x_01 + 0.53 x_11 - 1.01 x_21 + 0.22 x_31
   - 0.91 x_41 + 0.96 x_51 - 1070.5 a_max_51 <= -0
 goal_quality_constr_51: 1.02 x_01 + 1.23 x_11 - 0.31 x_21 + 0.92 x_31
   - 0.21 x_41 + 1.66 x_51 + 1070.5 b_min_51 - 1070.5 b_max_51 = -0
 demand_constr_2: x_02 + x_12 + x_22 + x_32 + x_42 + x_52 = 1294.3
 min_quality_constr_02: 0.86 x_02 + 11.29 x_12 + 1.73 x_22 + 21.89 x_32
   + 22.96 x_42 + 1.54 x_52 + 1294.3 a_min_02 >= -0
 max_quality_constr_02: - 44.14 x_02 - 33.71 x_12 - 43.27 x_22 - 23.11 x_32
   - 22.04 x_42 - 43.46 x_52 - 1294.3 a_max_02 <= -0
 goal_quality_constr_02: - 30.72 x_02 - 20.29 x_12 - 29.85 x_22 - 9.69 x_32
   - 8.62 x_42 - 30.04 x_52 + 1294.3 b_min_02 - 1294.3 b_max_02 = -0
 min_quality_constr_12: 0.45 x_02 + 1.31 x_12 + 0.78 x_22 + 1.15 x_32
   + 0.18 x_42 + 1.47 x_52 + 1294.3 a_min_12 >= -0
 max_quality_constr_12: - 1.05 x_02 - 0.19 x_12 - 0.72 x_22 - 0.35 x_32
   - 1.32 x_42 - 0.03 x_52 - 1294.3 a_max_12 <= -0
 goal_quality_constr_12: - 0.63 x_02 + 0.23 x_12 - 0.3 x_22 + 0.07 x_32
   - 0.9 x_42 + 0.39 x_52 + 1294.3 b_min_12 - 1294.3 b_max_12 = -0
 min_quality_constr_22: 5.57 x_02 + 4.32 x_12 + 5.5 x_22 + 1.61 x_32
   + 2.85 x_42 + 1.75 x_52 + 1294.3 a_min_22 >= -0
 max_quality_constr_22: 5.07 x_02 + 3.82 x_12 + 5 x_22 + 1.11 x_32
   + 2.35 x_42 + 1.25 x_52 - 1294.3 a_max_22 <= -0
 goal_quality_constr_22: 5.29 x_02 + 4.04 x_12 + 5.22 x_22 + 1.33 x_32
   + 2.57 x_42 + 1.47 x_52 + 1294.3 b_min_22 - 1294.3 b_max_22 = -0
 min_quality_constr_32: 5.94 x_02 + 5.65 x_12 + 5.37 x_22 + 1.64 x_32
   + 5.95 x_42 + 5.07 x_52 + 1294.3 a_min_32 >= -0
 max_quality_constr_32: 5.44 x_02 + 5.15 x_12 + 4.87 x_22 + 1.14 x_32
   + 5.45 x_42 + 4.57 x_52 - 1294.3 a_max_32 <= -0
 goal_quality_constr_32: 5.88 x_02 + 5.59 x_12 + 5.31 x_22 + 1.58 x_32
   + 5.89 x_42 + 5.01 x_52 + 1294.3 b_min_32 - 1294.3 b_max_32 = -0
 min_quality_constr_42: 0.23 x_02 + 0.2 x_12 + 1.15 x_22 + 1.18 x_32
   + 0.09 x_42 + 0.53 x_52 + 1294.3 a_min_42 >= -0
 max_quality_constr_42: - 0.77 x_02 - 0.8 x_12 + 0.15 x_22 + 0.18 x_32
   - 0.91 x_42 - 0.47 x_52 - 1294.3 a_max_42 <= -0
 goal_quality_constr_42: - 0.6 x_02 - 0.63 x_12 + 0.32 x_22 + 0.35 x_32
   - 0.74 x_42 - 0.3 x_52 + 1294.3 b_min_42 - 1294.3 b_max_42 = -0
 min_quality_constr_52: 1.82 x_02 + 2.03 x_12 + 0.49 x_22 + 1.72 x_32
   + 0.59 x_42 + 2.46 x_52 + 1294.3 a_min_52 >= -0
 max_quality_constr_52: 0.32 x_02 + 0.53 x_12 - 1.01 x_22 + 0.22 x_32
   - 0.91 x_42 + 0.96 x_52 - 1294.3 a_max_52 <= -0
 goal_quality_constr_52: 0.46 x_02 + 0.67 x_12 - 0.87 x_22 + 0.36 x_32
   - 0.77 x_42 + 1.1 x_52 + 1294.3 b_min_52 - 1294.3 b_max_52 = -0
 demand_constr_3: x_03 + x_13 + x_23 + x_33 + x_43 + x_53 = 1315.6
 min_quality_constr_03: 0.86 x_03 + 11.29 x_13 + 1.73 x_23 + 21.89 x_33
   + 22.96 x_43 + 1.54 x_53 + 1315.6 a_min_03 >= -0
 max_quality_constr_03: - 44.14 x_03 - 33.71 x_13 - 43.27 x_23 - 23.11 x_33
   - 22.04 x_43 - 43.46 x_53 - 1315.6 a_max_03 <= -0
 goal_quality_constr_03: - 34.68 x_03 - 24.25 x_13 - 33.81 x_23
   - 13.65 x_33 - 12.58 x_43 - 34 x_53 + 1315.6 b_min_03 - 1315.6 b_max_03
   = -0
 min_quality_constr_13: 0.45 x_03 + 1.31 x_13 + 0.78 x_23 + 1.15 x_33
   + 0.18 x_43 + 1.47 x_53 + 1315.6 a_min_13 >= -0
 max_quality_constr_13: - 1.05 x_03 - 0.19 x_13 - 0.72 x_23 - 0.35 x_33
   - 1.32 x_43 - 0.03 x_53 - 1315.6 a_max_13 <= -0
 goal_quality_constr_13: - 1.05 x_03 - 0.19 x_13 - 0.72 x_23 - 0.35 x_33
   - 1.32 x_43 - 0.03 x_53 + 1315.6 b_min_13 - 1315.6 b_max_13 = -0
 min_quality_constr_23: 5.57 x_03 + 4.32 x_13 + 5.5 x_23 + 1.61 x_33
   + 2.85 x_43 + 1.75 x_53 + 1315.6 a_min_23 >= -0
 max_quality_constr_23: 5.07 x_03 + 3.82 x_13 + 5 x_23 + 1.11 x_33
   + 2.35 x_43 + 1.25 x_53 - 1315.6 a_max_23 <= -0
 goal_quality_constr_23: 5.4 x_03 + 4.15 x_13 + 5.33 x_23 + 1.44 x_33
   + 2.68 x_43 + 1.58 x_53 + 1315.6 b_min_23 - 1315.6 b_max_23 = -0
 min_quality_constr_33: 5.94 x_03 + 5.65 x_13 + 5.37 x_23 + 1.64 x_33
   + 5.95 x_43 + 5.07 x_53 + 1315.6 a_min_33 >= -0
 max_quality_constr_33: 5.44 x_03 + 5.15 x_13 + 4.87 x_23 + 1.14 x_33
   + 5.45 x_43 + 4.57 x_53 - 1315.6 a_max_33 <= -0
 goal_quality_constr_33: 5.79 x_03 + 5.5 x_13 + 5.22 x_23 + 1.49 x_33
   + 5.8 x_43 + 4.92 x_53 + 1315.6 b_min_33 - 1315.6 b_max_33 = -0
 min_quality_constr_43: 0.23 x_03 + 0.2 x_13 + 1.15 x_23 + 1.18 x_33
   + 0.09 x_43 + 0.53 x_53 + 1315.6 a_min_43 >= -0
 max_quality_constr_43: - 0.77 x_03 - 0.8 x_13 + 0.15 x_23 + 0.18 x_33
   - 0.91 x_43 - 0.47 x_53 - 1315.6 a_max_43 <= -0
 goal_quality_constr_43: 0.22 x_03 + 0.19 x_13 + 1.14 x_23 + 1.17 x_33
   + 0.08 x_43 + 0.52 x_53 + 1315.6 b_min_43 - 1315.6 b_max_43 = -0
 min_quality_constr_53: 1.82 x_03 + 2.03 x_13 + 0.49 x_23 + 1.72 x_33
   + 0.59 x_43 + 2.46 x_53 + 1315.6 a_min_53 >= -0
 max_quality_constr_53: 0.32 x_03 + 0.53 x_13 - 1.01 x_23 + 0.22 x_33
   - 0.91 x_43 + 0.96 x_53 - 1315.6 a_max_53 <= -0
 goal_quality_constr_53: 1.3 x_03 + 1.51 x_13 - 0.03 x_23 + 1.2 x_33
   + 0.07 x_43 + 1.94 x_53 + 1315.6 b_min_53 - 1315.6 b_max_53 = -0
Bounds
End
